100 87012

 278 197
265 654
9 835
457 23
795 999
273 606
940 754
813 237
8 957
208 919
914 923
637 566
123 138
33 473
513 845
204 784
518 553
809 610
951 695
517 640
443 229
592 317
786 598
689 768
850 721
833 727
339 886
438 612
445 561
136 201
387 948
25 258
506 480
325 888
695 178
680 757
979 123
338 342
690 171
885 845
95 648
545 59
623 705
146 465
893 780
953 260
231 373
784 973
848 95
495 125
38 41
425 891
647 254
846 7
747 471
437 728
831 511
368 581
345 69
160 81
550 542
662 585
912 262
820 89
541 915
144 208
588 213
657 834
741 266
576 912
859 293
345 207
269 333
840 77
696 288
773 47
268 622
169 200
771 427
739 210
33 888
377 420
214 154
562 522
440 415
492 353
393 157
489 261
722 77
946 769
29 983
39 488
859 131
612 579
173 455
17 740
56 163
226 15
558 232
67 195
